p cnf 591 2005
c p weight -235 1 0
c p weight 235 -1 0
c p weight 239 6.12323399573676603586882014729198302312846062338790031898128063403419218957424163818359375E-17 0
c p weight -239 1 0
c p weight 240 1 0
c p weight -240 1 0
c p weight -237 1 0
c p weight 237 -1 0
c p weight -241 1 0
c p weight 241 -1 0
c p weight -243 1 0
c p weight 243 -1 0
c p weight -246 1 0
c p weight 246 -1 0
c p weight -249 1 0
c p weight 249 -1 0
c p weight -252 1 0
c p weight 252 -1 0
c p weight -255 1 0
c p weight 255 -1 0
c p weight -258 1 0
c p weight 258 -1 0
c p weight -261 1 0
c p weight 261 -1 0
c p weight -264 1 0
c p weight 264 -1 0
c p weight -267 1 0
c p weight 267 -1 0
c p weight -270 1 0
c p weight 270 -1 0
c p weight -273 1 0
c p weight 273 -1 0
c p weight -276 1 0
c p weight 276 -1 0
c p weight -279 1 0
c p weight 279 -1 0
c p weight -282 1 0
c p weight 282 -1 0
c p weight -285 1 0
c p weight 285 -1 0
c p weight -288 1 0
c p weight 288 -1 0
c p weight -291 1 0
c p weight 291 -1 0
c p weight -294 1 0
c p weight 294 -1 0
c p weight -297 1 0
c p weight 297 -1 0
c p weight -300 1 0
c p weight 300 -1 0
c p weight -303 1 0
c p weight 303 -1 0
c p weight -306 1 0
c p weight 306 -1 0
c p weight -309 1 0
c p weight 309 -1 0
c p weight -312 1 0
c p weight 312 -1 0
c p weight -315 1 0
c p weight 315 -1 0
c p weight -318 1 0
c p weight 318 -1 0
c p weight -321 1 0
c p weight 321 -1 0
c p weight -324 1 0
c p weight 324 -1 0
c p weight -327 1 0
c p weight 327 -1 0
c p weight -330 1 0
c p weight 330 -1 0
c p weight -333 1 0
c p weight 333 -1 0
c p weight -336 1 0
c p weight 336 -1 0
c p weight -339 1 0
c p weight 339 -1 0
c p weight -342 1 0
c p weight 342 -1 0
c p weight -345 1 0
c p weight 345 -1 0
c p weight -348 1 0
c p weight 348 -1 0
c p weight -351 1 0
c p weight 351 -1 0
c p weight -354 1 0
c p weight 354 -1 0
c p weight -357 1 0
c p weight 357 -1 0
c p weight -360 1 0
c p weight 360 -1 0
c p weight -363 1 0
c p weight 363 -1 0
c p weight -366 1 0
c p weight 366 -1 0
c p weight -369 1 0
c p weight 369 -1 0
c p weight -372 1 0
c p weight 372 -1 0
c p weight -375 1 0
c p weight 375 -1 0
c p weight -378 1 0
c p weight 378 -1 0
c p weight -381 1 0
c p weight 381 -1 0
c p weight -384 1 0
c p weight 384 -1 0
c p weight -387 1 0
c p weight 387 -1 0
c p weight -390 1 0
c p weight 390 -1 0
c p weight -393 1 0
c p weight 393 -1 0
c p weight -396 1 0
c p weight 396 -1 0
c p weight -399 1 0
c p weight 399 -1 0
c p weight -402 1 0
c p weight 402 -1 0
c p weight -405 1 0
c p weight 405 -1 0
c p weight -408 1 0
c p weight 408 -1 0
c p weight -411 1 0
c p weight 411 -1 0
c p weight -414 1 0
c p weight 414 -1 0
c p weight -417 1 0
c p weight 417 -1 0
c p weight -420 1 0
c p weight 420 -1 0
c p weight -423 1 0
c p weight 423 -1 0
c p weight -426 1 0
c p weight 426 -1 0
c p weight -429 1 0
c p weight 429 -1 0
c p weight -432 1 0
c p weight 432 -1 0
c p weight -435 1 0
c p weight 435 -1 0
c p weight -438 1 0
c p weight 438 -1 0
c p weight -441 1 0
c p weight 441 -1 0
c p weight -444 1 0
c p weight 444 -1 0
c p weight -447 1 0
c p weight 447 -1 0
c p weight -450 1 0
c p weight 450 -1 0
c p weight -453 1 0
c p weight 453 -1 0
c p weight -456 1 0
c p weight 456 -1 0
c p weight -459 1 0
c p weight 459 -1 0
c p weight -462 1 0
c p weight 462 -1 0
c p weight -465 1 0
c p weight 465 -1 0
c p weight -468 1 0
c p weight 468 -1 0
c p weight -471 1 0
c p weight 471 -1 0
c p weight -474 1 0
c p weight 474 -1 0
c p weight -477 1 0
c p weight 477 -1 0
c p weight -480 1 0
c p weight 480 -1 0
c p weight -483 1 0
c p weight 483 -1 0
c p weight -486 1 0
c p weight 486 -1 0
c p weight -489 1 0
c p weight 489 -1 0
c p weight -492 1 0
c p weight 492 -1 0
c p weight -495 1 0
c p weight 495 -1 0
c p weight -498 1 0
c p weight 498 -1 0
c p weight -501 1 0
c p weight 501 -1 0
c p weight -504 1 0
c p weight 504 -1 0
c p weight -507 1 0
c p weight 507 -1 0
c p weight -510 1 0
c p weight 510 -1 0
c p weight -513 1 0
c p weight 513 -1 0
c p weight -516 1 0
c p weight 516 -1 0
c p weight -519 1 0
c p weight 519 -1 0
c p weight -522 1 0
c p weight 522 -1 0
c p weight -525 1 0
c p weight 525 -1 0
c p weight -528 1 0
c p weight 528 -1 0
c p weight -531 1 0
c p weight 531 -1 0
c p weight -534 1 0
c p weight 534 -1 0
c p weight -537 1 0
c p weight 537 -1 0
c p weight -540 1 0
c p weight 540 -1 0
c p weight -543 1 0
c p weight 543 -1 0
c p weight -546 1 0
c p weight 546 -1 0
c p weight -549 1 0
c p weight 549 -1 0
c p weight -552 1 0
c p weight 552 -1 0
c p weight -555 1 0
c p weight 555 -1 0
c p weight -558 1 0
c p weight 558 -1 0
c p weight -561 1 0
c p weight 561 -1 0
c p weight -564 1 0
c p weight 564 -1 0
c p weight -567 1 0
c p weight 567 -1 0
c p weight -570 1 0
c p weight 570 -1 0
c p weight -573 1 0
c p weight 573 -1 0
c p weight -576 1 0
c p weight 576 -1 0
c p weight -579 1 0
c p weight 579 -1 0
c p weight -582 1 0
c p weight 582 -1 0
c p weight -585 1 0
c p weight 585 -1 0
c p weight -588 1 0
c p weight 588 -1 0
c p weight 591 0.5 0
c p weight -591 1 0
591 0
-233 0
-231 0
-229 0
-227 0
-225 0
-223 0
-221 0
-219 0
-217 0
-215 0
-213 0
-211 0
-209 0
-207 0
-205 0
-203 0
-201 0
-199 0
-197 0
-195 0
-193 0
-191 0
-189 0
-187 0
-185 0
-183 0
-181 0
-179 0
-177 0
-175 0
-173 0
-171 0
-169 0
-167 0
-165 0
-163 0
-161 0
-159 0
-157 0
-155 0
-153 0
-151 0
-149 0
-147 0
-145 0
-143 0
-141 0
-139 0
-137 0
-135 0
-133 0
-131 0
-129 0
-127 0
-125 0
-123 0
-121 0
-119 0
-117 0
-115 0
-113 0
-111 0
-109 0
-107 0
-105 0
-103 0
-101 0
-99 0
-97 0
-95 0
-93 0
-91 0
-89 0
-87 0
-85 0
-83 0
-81 0
-79 0
-77 0
-75 0
-73 0
-71 0
-69 0
-67 0
-65 0
-63 0
-61 0
-59 0
-57 0
-55 0
-53 0
-51 0
-49 0
-47 0
-45 0
-43 0
-41 0
-39 0
-37 0
-35 0
-33 0
-31 0
-29 0
-27 0
-25 0
-23 0
-21 0
-19 0
-17 0
-15 0
-13 0
-11 0
-9 0
-7 0
-5 0
-3 0
-1 0
-235 233 0
-235 234 0
235 -233 -234 0
236 233 -234 0
236 -233 234 0
-236 233 234 0
-236 -233 -234 0
-237 238 0
-237 236 0
-237 -233 0
237 -238 233 -236 0
238 -233 236 0
-238 233 236 0
-239 236 0
238 -239 -233 0
-238 -239 233 0
238 239 233 -236 0
-238 239 -233 -236 0
-240 236 0
238 -240 233 0
-238 -240 -233 0
238 240 -233 -236 0
-238 240 233 -236 0
-241 238 0
-241 236 0
241 -238 -236 0
242 238 -236 0
242 -238 236 0
-242 238 236 0
-242 -238 -236 0
-243 238 0
-243 232 0
-243 231 -242 0
-243 -231 242 0
243 -238 231 242 -232 0
243 -238 -231 -242 -232 0
245 238 -231 0
245 -238 231 0
-245 238 231 0
-245 -238 -231 0
244 242 -232 0
244 -242 232 0
-244 242 232 0
-244 -242 -232 0
-246 245 0
-246 230 0
-246 229 -232 0
-246 -229 232 0
246 -245 229 232 -230 0
246 -245 -229 -232 -230 0
248 245 -229 0
248 -245 229 0
-248 245 229 0
-248 -245 -229 0
247 232 -230 0
247 -232 230 0
-247 232 230 0
-247 -232 -230 0
-249 248 0
-249 228 0
-249 227 -230 0
-249 -227 230 0
249 -248 227 230 -228 0
249 -248 -227 -230 -228 0
251 248 -227 0
251 -248 227 0
-251 248 227 0
-251 -248 -227 0
250 230 -228 0
250 -230 228 0
-250 230 228 0
-250 -230 -228 0
-252 251 0
-252 226 0
-252 225 -228 0
-252 -225 228 0
252 -251 225 228 -226 0
252 -251 -225 -228 -226 0
254 251 -225 0
254 -251 225 0
-254 251 225 0
-254 -251 -225 0
253 228 -226 0
253 -228 226 0
-253 228 226 0
-253 -228 -226 0
-255 254 0
-255 224 0
-255 223 -226 0
-255 -223 226 0
255 -254 223 226 -224 0
255 -254 -223 -226 -224 0
257 254 -223 0
257 -254 223 0
-257 254 223 0
-257 -254 -223 0
256 226 -224 0
256 -226 224 0
-256 226 224 0
-256 -226 -224 0
-258 257 0
-258 222 0
-258 221 -224 0
-258 -221 224 0
258 -257 221 224 -222 0
258 -257 -221 -224 -222 0
260 257 -221 0
260 -257 221 0
-260 257 221 0
-260 -257 -221 0
259 224 -222 0
259 -224 222 0
-259 224 222 0
-259 -224 -222 0
-261 260 0
-261 220 0
-261 219 -222 0
-261 -219 222 0
261 -260 219 222 -220 0
261 -260 -219 -222 -220 0
263 260 -219 0
263 -260 219 0
-263 260 219 0
-263 -260 -219 0
262 222 -220 0
262 -222 220 0
-262 222 220 0
-262 -222 -220 0
-264 263 0
-264 218 0
-264 217 -220 0
-264 -217 220 0
264 -263 217 220 -218 0
264 -263 -217 -220 -218 0
266 263 -217 0
266 -263 217 0
-266 263 217 0
-266 -263 -217 0
265 220 -218 0
265 -220 218 0
-265 220 218 0
-265 -220 -218 0
-267 266 0
-267 216 0
-267 215 -218 0
-267 -215 218 0
267 -266 215 218 -216 0
267 -266 -215 -218 -216 0
269 266 -215 0
269 -266 215 0
-269 266 215 0
-269 -266 -215 0
268 218 -216 0
268 -218 216 0
-268 218 216 0
-268 -218 -216 0
-270 269 0
-270 214 0
-270 213 -216 0
-270 -213 216 0
270 -269 213 216 -214 0
270 -269 -213 -216 -214 0
272 269 -213 0
272 -269 213 0
-272 269 213 0
-272 -269 -213 0
271 216 -214 0
271 -216 214 0
-271 216 214 0
-271 -216 -214 0
-273 272 0
-273 212 0
-273 211 -214 0
-273 -211 214 0
273 -272 211 214 -212 0
273 -272 -211 -214 -212 0
275 272 -211 0
275 -272 211 0
-275 272 211 0
-275 -272 -211 0
274 214 -212 0
274 -214 212 0
-274 214 212 0
-274 -214 -212 0
-276 275 0
-276 210 0
-276 209 -212 0
-276 -209 212 0
276 -275 209 212 -210 0
276 -275 -209 -212 -210 0
278 275 -209 0
278 -275 209 0
-278 275 209 0
-278 -275 -209 0
277 212 -210 0
277 -212 210 0
-277 212 210 0
-277 -212 -210 0
-279 278 0
-279 208 0
-279 207 -210 0
-279 -207 210 0
279 -278 207 210 -208 0
279 -278 -207 -210 -208 0
281 278 -207 0
281 -278 207 0
-281 278 207 0
-281 -278 -207 0
280 210 -208 0
280 -210 208 0
-280 210 208 0
-280 -210 -208 0
-282 281 0
-282 206 0
-282 205 -208 0
-282 -205 208 0
282 -281 205 208 -206 0
282 -281 -205 -208 -206 0
284 281 -205 0
284 -281 205 0
-284 281 205 0
-284 -281 -205 0
283 208 -206 0
283 -208 206 0
-283 208 206 0
-283 -208 -206 0
-285 284 0
-285 204 0
-285 203 -206 0
-285 -203 206 0
285 -284 203 206 -204 0
285 -284 -203 -206 -204 0
287 284 -203 0
287 -284 203 0
-287 284 203 0
-287 -284 -203 0
286 206 -204 0
286 -206 204 0
-286 206 204 0
-286 -206 -204 0
-288 287 0
-288 202 0
-288 201 -204 0
-288 -201 204 0
288 -287 201 204 -202 0
288 -287 -201 -204 -202 0
290 287 -201 0
290 -287 201 0
-290 287 201 0
-290 -287 -201 0
289 204 -202 0
289 -204 202 0
-289 204 202 0
-289 -204 -202 0
-291 290 0
-291 200 0
-291 199 -202 0
-291 -199 202 0
291 -290 199 202 -200 0
291 -290 -199 -202 -200 0
293 290 -199 0
293 -290 199 0
-293 290 199 0
-293 -290 -199 0
292 202 -200 0
292 -202 200 0
-292 202 200 0
-292 -202 -200 0
-294 293 0
-294 198 0
-294 197 -200 0
-294 -197 200 0
294 -293 197 200 -198 0
294 -293 -197 -200 -198 0
296 293 -197 0
296 -293 197 0
-296 293 197 0
-296 -293 -197 0
295 200 -198 0
295 -200 198 0
-295 200 198 0
-295 -200 -198 0
-297 296 0
-297 196 0
-297 195 -198 0
-297 -195 198 0
297 -296 195 198 -196 0
297 -296 -195 -198 -196 0
299 296 -195 0
299 -296 195 0
-299 296 195 0
-299 -296 -195 0
298 198 -196 0
298 -198 196 0
-298 198 196 0
-298 -198 -196 0
-300 299 0
-300 194 0
-300 193 -196 0
-300 -193 196 0
300 -299 193 196 -194 0
300 -299 -193 -196 -194 0
302 299 -193 0
302 -299 193 0
-302 299 193 0
-302 -299 -193 0
301 196 -194 0
301 -196 194 0
-301 196 194 0
-301 -196 -194 0
-303 302 0
-303 192 0
-303 191 -194 0
-303 -191 194 0
303 -302 191 194 -192 0
303 -302 -191 -194 -192 0
305 302 -191 0
305 -302 191 0
-305 302 191 0
-305 -302 -191 0
304 194 -192 0
304 -194 192 0
-304 194 192 0
-304 -194 -192 0
-306 305 0
-306 190 0
-306 189 -192 0
-306 -189 192 0
306 -305 189 192 -190 0
306 -305 -189 -192 -190 0
308 305 -189 0
308 -305 189 0
-308 305 189 0
-308 -305 -189 0
307 192 -190 0
307 -192 190 0
-307 192 190 0
-307 -192 -190 0
-309 308 0
-309 188 0
-309 187 -190 0
-309 -187 190 0
309 -308 187 190 -188 0
309 -308 -187 -190 -188 0
311 308 -187 0
311 -308 187 0
-311 308 187 0
-311 -308 -187 0
310 190 -188 0
310 -190 188 0
-310 190 188 0
-310 -190 -188 0
-312 311 0
-312 186 0
-312 185 -188 0
-312 -185 188 0
312 -311 185 188 -186 0
312 -311 -185 -188 -186 0
314 311 -185 0
314 -311 185 0
-314 311 185 0
-314 -311 -185 0
313 188 -186 0
313 -188 186 0
-313 188 186 0
-313 -188 -186 0
-315 314 0
-315 184 0
-315 183 -186 0
-315 -183 186 0
315 -314 183 186 -184 0
315 -314 -183 -186 -184 0
317 314 -183 0
317 -314 183 0
-317 314 183 0
-317 -314 -183 0
316 186 -184 0
316 -186 184 0
-316 186 184 0
-316 -186 -184 0
-318 317 0
-318 182 0
-318 181 -184 0
-318 -181 184 0
318 -317 181 184 -182 0
318 -317 -181 -184 -182 0
320 317 -181 0
320 -317 181 0
-320 317 181 0
-320 -317 -181 0
319 184 -182 0
319 -184 182 0
-319 184 182 0
-319 -184 -182 0
-321 320 0
-321 180 0
-321 179 -182 0
-321 -179 182 0
321 -320 179 182 -180 0
321 -320 -179 -182 -180 0
323 320 -179 0
323 -320 179 0
-323 320 179 0
-323 -320 -179 0
322 182 -180 0
322 -182 180 0
-322 182 180 0
-322 -182 -180 0
-324 323 0
-324 178 0
-324 177 -180 0
-324 -177 180 0
324 -323 177 180 -178 0
324 -323 -177 -180 -178 0
326 323 -177 0
326 -323 177 0
-326 323 177 0
-326 -323 -177 0
325 180 -178 0
325 -180 178 0
-325 180 178 0
-325 -180 -178 0
-327 326 0
-327 176 0
-327 175 -178 0
-327 -175 178 0
327 -326 175 178 -176 0
327 -326 -175 -178 -176 0
329 326 -175 0
329 -326 175 0
-329 326 175 0
-329 -326 -175 0
328 178 -176 0
328 -178 176 0
-328 178 176 0
-328 -178 -176 0
-330 329 0
-330 174 0
-330 173 -176 0
-330 -173 176 0
330 -329 173 176 -174 0
330 -329 -173 -176 -174 0
332 329 -173 0
332 -329 173 0
-332 329 173 0
-332 -329 -173 0
331 176 -174 0
331 -176 174 0
-331 176 174 0
-331 -176 -174 0
-333 332 0
-333 172 0
-333 171 -174 0
-333 -171 174 0
333 -332 171 174 -172 0
333 -332 -171 -174 -172 0
335 332 -171 0
335 -332 171 0
-335 332 171 0
-335 -332 -171 0
334 174 -172 0
334 -174 172 0
-334 174 172 0
-334 -174 -172 0
-336 335 0
-336 170 0
-336 169 -172 0
-336 -169 172 0
336 -335 169 172 -170 0
336 -335 -169 -172 -170 0
338 335 -169 0
338 -335 169 0
-338 335 169 0
-338 -335 -169 0
337 172 -170 0
337 -172 170 0
-337 172 170 0
-337 -172 -170 0
-339 338 0
-339 168 0
-339 167 -170 0
-339 -167 170 0
339 -338 167 170 -168 0
339 -338 -167 -170 -168 0
341 338 -167 0
341 -338 167 0
-341 338 167 0
-341 -338 -167 0
340 170 -168 0
340 -170 168 0
-340 170 168 0
-340 -170 -168 0
-342 341 0
-342 166 0
-342 165 -168 0
-342 -165 168 0
342 -341 165 168 -166 0
342 -341 -165 -168 -166 0
344 341 -165 0
344 -341 165 0
-344 341 165 0
-344 -341 -165 0
343 168 -166 0
343 -168 166 0
-343 168 166 0
-343 -168 -166 0
-345 344 0
-345 164 0
-345 163 -166 0
-345 -163 166 0
345 -344 163 166 -164 0
345 -344 -163 -166 -164 0
347 344 -163 0
347 -344 163 0
-347 344 163 0
-347 -344 -163 0
346 166 -164 0
346 -166 164 0
-346 166 164 0
-346 -166 -164 0
-348 347 0
-348 162 0
-348 161 -164 0
-348 -161 164 0
348 -347 161 164 -162 0
348 -347 -161 -164 -162 0
350 347 -161 0
350 -347 161 0
-350 347 161 0
-350 -347 -161 0
349 164 -162 0
349 -164 162 0
-349 164 162 0
-349 -164 -162 0
-351 350 0
-351 160 0
-351 159 -162 0
-351 -159 162 0
351 -350 159 162 -160 0
351 -350 -159 -162 -160 0
353 350 -159 0
353 -350 159 0
-353 350 159 0
-353 -350 -159 0
352 162 -160 0
352 -162 160 0
-352 162 160 0
-352 -162 -160 0
-354 353 0
-354 158 0
-354 157 -160 0
-354 -157 160 0
354 -353 157 160 -158 0
354 -353 -157 -160 -158 0
356 353 -157 0
356 -353 157 0
-356 353 157 0
-356 -353 -157 0
355 160 -158 0
355 -160 158 0
-355 160 158 0
-355 -160 -158 0
-357 356 0
-357 156 0
-357 155 -158 0
-357 -155 158 0
357 -356 155 158 -156 0
357 -356 -155 -158 -156 0
359 356 -155 0
359 -356 155 0
-359 356 155 0
-359 -356 -155 0
358 158 -156 0
358 -158 156 0
-358 158 156 0
-358 -158 -156 0
-360 359 0
-360 154 0
-360 153 -156 0
-360 -153 156 0
360 -359 153 156 -154 0
360 -359 -153 -156 -154 0
362 359 -153 0
362 -359 153 0
-362 359 153 0
-362 -359 -153 0
361 156 -154 0
361 -156 154 0
-361 156 154 0
-361 -156 -154 0
-363 362 0
-363 152 0
-363 151 -154 0
-363 -151 154 0
363 -362 151 154 -152 0
363 -362 -151 -154 -152 0
365 362 -151 0
365 -362 151 0
-365 362 151 0
-365 -362 -151 0
364 154 -152 0
364 -154 152 0
-364 154 152 0
-364 -154 -152 0
-366 365 0
-366 150 0
-366 149 -152 0
-366 -149 152 0
366 -365 149 152 -150 0
366 -365 -149 -152 -150 0
368 365 -149 0
368 -365 149 0
-368 365 149 0
-368 -365 -149 0
367 152 -150 0
367 -152 150 0
-367 152 150 0
-367 -152 -150 0
-369 368 0
-369 148 0
-369 147 -150 0
-369 -147 150 0
369 -368 147 150 -148 0
369 -368 -147 -150 -148 0
371 368 -147 0
371 -368 147 0
-371 368 147 0
-371 -368 -147 0
370 150 -148 0
370 -150 148 0
-370 150 148 0
-370 -150 -148 0
-372 371 0
-372 146 0
-372 145 -148 0
-372 -145 148 0
372 -371 145 148 -146 0
372 -371 -145 -148 -146 0
374 371 -145 0
374 -371 145 0
-374 371 145 0
-374 -371 -145 0
373 148 -146 0
373 -148 146 0
-373 148 146 0
-373 -148 -146 0
-375 374 0
-375 144 0
-375 143 -146 0
-375 -143 146 0
375 -374 143 146 -144 0
375 -374 -143 -146 -144 0
377 374 -143 0
377 -374 143 0
-377 374 143 0
-377 -374 -143 0
376 146 -144 0
376 -146 144 0
-376 146 144 0
-376 -146 -144 0
-378 377 0
-378 142 0
-378 141 -144 0
-378 -141 144 0
378 -377 141 144 -142 0
378 -377 -141 -144 -142 0
380 377 -141 0
380 -377 141 0
-380 377 141 0
-380 -377 -141 0
379 144 -142 0
379 -144 142 0
-379 144 142 0
-379 -144 -142 0
-381 380 0
-381 140 0
-381 139 -142 0
-381 -139 142 0
381 -380 139 142 -140 0
381 -380 -139 -142 -140 0
383 380 -139 0
383 -380 139 0
-383 380 139 0
-383 -380 -139 0
382 142 -140 0
382 -142 140 0
-382 142 140 0
-382 -142 -140 0
-384 383 0
-384 138 0
-384 137 -140 0
-384 -137 140 0
384 -383 137 140 -138 0
384 -383 -137 -140 -138 0
386 383 -137 0
386 -383 137 0
-386 383 137 0
-386 -383 -137 0
385 140 -138 0
385 -140 138 0
-385 140 138 0
-385 -140 -138 0
-387 386 0
-387 136 0
-387 135 -138 0
-387 -135 138 0
387 -386 135 138 -136 0
387 -386 -135 -138 -136 0
389 386 -135 0
389 -386 135 0
-389 386 135 0
-389 -386 -135 0
388 138 -136 0
388 -138 136 0
-388 138 136 0
-388 -138 -136 0
-390 389 0
-390 134 0
-390 133 -136 0
-390 -133 136 0
390 -389 133 136 -134 0
390 -389 -133 -136 -134 0
392 389 -133 0
392 -389 133 0
-392 389 133 0
-392 -389 -133 0
391 136 -134 0
391 -136 134 0
-391 136 134 0
-391 -136 -134 0
-393 392 0
-393 132 0
-393 131 -134 0
-393 -131 134 0
393 -392 131 134 -132 0
393 -392 -131 -134 -132 0
395 392 -131 0
395 -392 131 0
-395 392 131 0
-395 -392 -131 0
394 134 -132 0
394 -134 132 0
-394 134 132 0
-394 -134 -132 0
-396 395 0
-396 130 0
-396 129 -132 0
-396 -129 132 0
396 -395 129 132 -130 0
396 -395 -129 -132 -130 0
398 395 -129 0
398 -395 129 0
-398 395 129 0
-398 -395 -129 0
397 132 -130 0
397 -132 130 0
-397 132 130 0
-397 -132 -130 0
-399 398 0
-399 128 0
-399 127 -130 0
-399 -127 130 0
399 -398 127 130 -128 0
399 -398 -127 -130 -128 0
401 398 -127 0
401 -398 127 0
-401 398 127 0
-401 -398 -127 0
400 130 -128 0
400 -130 128 0
-400 130 128 0
-400 -130 -128 0
-402 401 0
-402 126 0
-402 125 -128 0
-402 -125 128 0
402 -401 125 128 -126 0
402 -401 -125 -128 -126 0
404 401 -125 0
404 -401 125 0
-404 401 125 0
-404 -401 -125 0
403 128 -126 0
403 -128 126 0
-403 128 126 0
-403 -128 -126 0
-405 404 0
-405 124 0
-405 123 -126 0
-405 -123 126 0
405 -404 123 126 -124 0
405 -404 -123 -126 -124 0
407 404 -123 0
407 -404 123 0
-407 404 123 0
-407 -404 -123 0
406 126 -124 0
406 -126 124 0
-406 126 124 0
-406 -126 -124 0
-408 407 0
-408 122 0
-408 121 -124 0
-408 -121 124 0
408 -407 121 124 -122 0
408 -407 -121 -124 -122 0
410 407 -121 0
410 -407 121 0
-410 407 121 0
-410 -407 -121 0
409 124 -122 0
409 -124 122 0
-409 124 122 0
-409 -124 -122 0
-411 410 0
-411 120 0
-411 119 -122 0
-411 -119 122 0
411 -410 119 122 -120 0
411 -410 -119 -122 -120 0
413 410 -119 0
413 -410 119 0
-413 410 119 0
-413 -410 -119 0
412 122 -120 0
412 -122 120 0
-412 122 120 0
-412 -122 -120 0
-414 413 0
-414 118 0
-414 117 -120 0
-414 -117 120 0
414 -413 117 120 -118 0
414 -413 -117 -120 -118 0
416 413 -117 0
416 -413 117 0
-416 413 117 0
-416 -413 -117 0
415 120 -118 0
415 -120 118 0
-415 120 118 0
-415 -120 -118 0
-417 416 0
-417 116 0
-417 115 -118 0
-417 -115 118 0
417 -416 115 118 -116 0
417 -416 -115 -118 -116 0
419 416 -115 0
419 -416 115 0
-419 416 115 0
-419 -416 -115 0
418 118 -116 0
418 -118 116 0
-418 118 116 0
-418 -118 -116 0
-420 419 0
-420 114 0
-420 113 -116 0
-420 -113 116 0
420 -419 113 116 -114 0
420 -419 -113 -116 -114 0
422 419 -113 0
422 -419 113 0
-422 419 113 0
-422 -419 -113 0
421 116 -114 0
421 -116 114 0
-421 116 114 0
-421 -116 -114 0
-423 422 0
-423 112 0
-423 111 -114 0
-423 -111 114 0
423 -422 111 114 -112 0
423 -422 -111 -114 -112 0
425 422 -111 0
425 -422 111 0
-425 422 111 0
-425 -422 -111 0
424 114 -112 0
424 -114 112 0
-424 114 112 0
-424 -114 -112 0
-426 425 0
-426 110 0
-426 109 -112 0
-426 -109 112 0
426 -425 109 112 -110 0
426 -425 -109 -112 -110 0
428 425 -109 0
428 -425 109 0
-428 425 109 0
-428 -425 -109 0
427 112 -110 0
427 -112 110 0
-427 112 110 0
-427 -112 -110 0
-429 428 0
-429 108 0
-429 107 -110 0
-429 -107 110 0
429 -428 107 110 -108 0
429 -428 -107 -110 -108 0
431 428 -107 0
431 -428 107 0
-431 428 107 0
-431 -428 -107 0
430 110 -108 0
430 -110 108 0
-430 110 108 0
-430 -110 -108 0
-432 431 0
-432 106 0
-432 105 -108 0
-432 -105 108 0
432 -431 105 108 -106 0
432 -431 -105 -108 -106 0
434 431 -105 0
434 -431 105 0
-434 431 105 0
-434 -431 -105 0
433 108 -106 0
433 -108 106 0
-433 108 106 0
-433 -108 -106 0
-435 434 0
-435 104 0
-435 103 -106 0
-435 -103 106 0
435 -434 103 106 -104 0
435 -434 -103 -106 -104 0
437 434 -103 0
437 -434 103 0
-437 434 103 0
-437 -434 -103 0
436 106 -104 0
436 -106 104 0
-436 106 104 0
-436 -106 -104 0
-438 437 0
-438 102 0
-438 101 -104 0
-438 -101 104 0
438 -437 101 104 -102 0
438 -437 -101 -104 -102 0
440 437 -101 0
440 -437 101 0
-440 437 101 0
-440 -437 -101 0
439 104 -102 0
439 -104 102 0
-439 104 102 0
-439 -104 -102 0
-441 440 0
-441 100 0
-441 99 -102 0
-441 -99 102 0
441 -440 99 102 -100 0
441 -440 -99 -102 -100 0
443 440 -99 0
443 -440 99 0
-443 440 99 0
-443 -440 -99 0
442 102 -100 0
442 -102 100 0
-442 102 100 0
-442 -102 -100 0
-444 443 0
-444 98 0
-444 97 -100 0
-444 -97 100 0
444 -443 97 100 -98 0
444 -443 -97 -100 -98 0
446 443 -97 0
446 -443 97 0
-446 443 97 0
-446 -443 -97 0
445 100 -98 0
445 -100 98 0
-445 100 98 0
-445 -100 -98 0
-447 446 0
-447 96 0
-447 95 -98 0
-447 -95 98 0
447 -446 95 98 -96 0
447 -446 -95 -98 -96 0
449 446 -95 0
449 -446 95 0
-449 446 95 0
-449 -446 -95 0
448 98 -96 0
448 -98 96 0
-448 98 96 0
-448 -98 -96 0
-450 449 0
-450 94 0
-450 93 -96 0
-450 -93 96 0
450 -449 93 96 -94 0
450 -449 -93 -96 -94 0
452 449 -93 0
452 -449 93 0
-452 449 93 0
-452 -449 -93 0
451 96 -94 0
451 -96 94 0
-451 96 94 0
-451 -96 -94 0
-453 452 0
-453 92 0
-453 91 -94 0
-453 -91 94 0
453 -452 91 94 -92 0
453 -452 -91 -94 -92 0
455 452 -91 0
455 -452 91 0
-455 452 91 0
-455 -452 -91 0
454 94 -92 0
454 -94 92 0
-454 94 92 0
-454 -94 -92 0
-456 455 0
-456 90 0
-456 89 -92 0
-456 -89 92 0
456 -455 89 92 -90 0
456 -455 -89 -92 -90 0
458 455 -89 0
458 -455 89 0
-458 455 89 0
-458 -455 -89 0
457 92 -90 0
457 -92 90 0
-457 92 90 0
-457 -92 -90 0
-459 458 0
-459 88 0
-459 87 -90 0
-459 -87 90 0
459 -458 87 90 -88 0
459 -458 -87 -90 -88 0
461 458 -87 0
461 -458 87 0
-461 458 87 0
-461 -458 -87 0
460 90 -88 0
460 -90 88 0
-460 90 88 0
-460 -90 -88 0
-462 461 0
-462 86 0
-462 85 -88 0
-462 -85 88 0
462 -461 85 88 -86 0
462 -461 -85 -88 -86 0
464 461 -85 0
464 -461 85 0
-464 461 85 0
-464 -461 -85 0
463 88 -86 0
463 -88 86 0
-463 88 86 0
-463 -88 -86 0
-465 464 0
-465 84 0
-465 83 -86 0
-465 -83 86 0
465 -464 83 86 -84 0
465 -464 -83 -86 -84 0
467 464 -83 0
467 -464 83 0
-467 464 83 0
-467 -464 -83 0
466 86 -84 0
466 -86 84 0
-466 86 84 0
-466 -86 -84 0
-468 467 0
-468 82 0
-468 81 -84 0
-468 -81 84 0
468 -467 81 84 -82 0
468 -467 -81 -84 -82 0
470 467 -81 0
470 -467 81 0
-470 467 81 0
-470 -467 -81 0
469 84 -82 0
469 -84 82 0
-469 84 82 0
-469 -84 -82 0
-471 470 0
-471 80 0
-471 79 -82 0
-471 -79 82 0
471 -470 79 82 -80 0
471 -470 -79 -82 -80 0
473 470 -79 0
473 -470 79 0
-473 470 79 0
-473 -470 -79 0
472 82 -80 0
472 -82 80 0
-472 82 80 0
-472 -82 -80 0
-474 473 0
-474 78 0
-474 77 -80 0
-474 -77 80 0
474 -473 77 80 -78 0
474 -473 -77 -80 -78 0
476 473 -77 0
476 -473 77 0
-476 473 77 0
-476 -473 -77 0
475 80 -78 0
475 -80 78 0
-475 80 78 0
-475 -80 -78 0
-477 476 0
-477 76 0
-477 75 -78 0
-477 -75 78 0
477 -476 75 78 -76 0
477 -476 -75 -78 -76 0
479 476 -75 0
479 -476 75 0
-479 476 75 0
-479 -476 -75 0
478 78 -76 0
478 -78 76 0
-478 78 76 0
-478 -78 -76 0
-480 479 0
-480 74 0
-480 73 -76 0
-480 -73 76 0
480 -479 73 76 -74 0
480 -479 -73 -76 -74 0
482 479 -73 0
482 -479 73 0
-482 479 73 0
-482 -479 -73 0
481 76 -74 0
481 -76 74 0
-481 76 74 0
-481 -76 -74 0
-483 482 0
-483 72 0
-483 71 -74 0
-483 -71 74 0
483 -482 71 74 -72 0
483 -482 -71 -74 -72 0
485 482 -71 0
485 -482 71 0
-485 482 71 0
-485 -482 -71 0
484 74 -72 0
484 -74 72 0
-484 74 72 0
-484 -74 -72 0
-486 485 0
-486 70 0
-486 69 -72 0
-486 -69 72 0
486 -485 69 72 -70 0
486 -485 -69 -72 -70 0
488 485 -69 0
488 -485 69 0
-488 485 69 0
-488 -485 -69 0
487 72 -70 0
487 -72 70 0
-487 72 70 0
-487 -72 -70 0
-489 488 0
-489 68 0
-489 67 -70 0
-489 -67 70 0
489 -488 67 70 -68 0
489 -488 -67 -70 -68 0
491 488 -67 0
491 -488 67 0
-491 488 67 0
-491 -488 -67 0
490 70 -68 0
490 -70 68 0
-490 70 68 0
-490 -70 -68 0
-492 491 0
-492 66 0
-492 65 -68 0
-492 -65 68 0
492 -491 65 68 -66 0
492 -491 -65 -68 -66 0
494 491 -65 0
494 -491 65 0
-494 491 65 0
-494 -491 -65 0
493 68 -66 0
493 -68 66 0
-493 68 66 0
-493 -68 -66 0
-495 494 0
-495 64 0
-495 63 -66 0
-495 -63 66 0
495 -494 63 66 -64 0
495 -494 -63 -66 -64 0
497 494 -63 0
497 -494 63 0
-497 494 63 0
-497 -494 -63 0
496 66 -64 0
496 -66 64 0
-496 66 64 0
-496 -66 -64 0
-498 497 0
-498 62 0
-498 61 -64 0
-498 -61 64 0
498 -497 61 64 -62 0
498 -497 -61 -64 -62 0
500 497 -61 0
500 -497 61 0
-500 497 61 0
-500 -497 -61 0
499 64 -62 0
499 -64 62 0
-499 64 62 0
-499 -64 -62 0
-501 500 0
-501 60 0
-501 59 -62 0
-501 -59 62 0
501 -500 59 62 -60 0
501 -500 -59 -62 -60 0
503 500 -59 0
503 -500 59 0
-503 500 59 0
-503 -500 -59 0
502 62 -60 0
502 -62 60 0
-502 62 60 0
-502 -62 -60 0
-504 503 0
-504 58 0
-504 57 -60 0
-504 -57 60 0
504 -503 57 60 -58 0
504 -503 -57 -60 -58 0
506 503 -57 0
506 -503 57 0
-506 503 57 0
-506 -503 -57 0
505 60 -58 0
505 -60 58 0
-505 60 58 0
-505 -60 -58 0
-507 506 0
-507 56 0
-507 55 -58 0
-507 -55 58 0
507 -506 55 58 -56 0
507 -506 -55 -58 -56 0
509 506 -55 0
509 -506 55 0
-509 506 55 0
-509 -506 -55 0
508 58 -56 0
508 -58 56 0
-508 58 56 0
-508 -58 -56 0
-510 509 0
-510 54 0
-510 53 -56 0
-510 -53 56 0
510 -509 53 56 -54 0
510 -509 -53 -56 -54 0
512 509 -53 0
512 -509 53 0
-512 509 53 0
-512 -509 -53 0
511 56 -54 0
511 -56 54 0
-511 56 54 0
-511 -56 -54 0
-513 512 0
-513 52 0
-513 51 -54 0
-513 -51 54 0
513 -512 51 54 -52 0
513 -512 -51 -54 -52 0
515 512 -51 0
515 -512 51 0
-515 512 51 0
-515 -512 -51 0
514 54 -52 0
514 -54 52 0
-514 54 52 0
-514 -54 -52 0
-516 515 0
-516 50 0
-516 49 -52 0
-516 -49 52 0
516 -515 49 52 -50 0
516 -515 -49 -52 -50 0
518 515 -49 0
518 -515 49 0
-518 515 49 0
-518 -515 -49 0
517 52 -50 0
517 -52 50 0
-517 52 50 0
-517 -52 -50 0
-519 518 0
-519 48 0
-519 47 -50 0
-519 -47 50 0
519 -518 47 50 -48 0
519 -518 -47 -50 -48 0
521 518 -47 0
521 -518 47 0
-521 518 47 0
-521 -518 -47 0
520 50 -48 0
520 -50 48 0
-520 50 48 0
-520 -50 -48 0
-522 521 0
-522 46 0
-522 45 -48 0
-522 -45 48 0
522 -521 45 48 -46 0
522 -521 -45 -48 -46 0
524 521 -45 0
524 -521 45 0
-524 521 45 0
-524 -521 -45 0
523 48 -46 0
523 -48 46 0
-523 48 46 0
-523 -48 -46 0
-525 524 0
-525 44 0
-525 43 -46 0
-525 -43 46 0
525 -524 43 46 -44 0
525 -524 -43 -46 -44 0
527 524 -43 0
527 -524 43 0
-527 524 43 0
-527 -524 -43 0
526 46 -44 0
526 -46 44 0
-526 46 44 0
-526 -46 -44 0
-528 527 0
-528 42 0
-528 41 -44 0
-528 -41 44 0
528 -527 41 44 -42 0
528 -527 -41 -44 -42 0
530 527 -41 0
530 -527 41 0
-530 527 41 0
-530 -527 -41 0
529 44 -42 0
529 -44 42 0
-529 44 42 0
-529 -44 -42 0
-531 530 0
-531 40 0
-531 39 -42 0
-531 -39 42 0
531 -530 39 42 -40 0
531 -530 -39 -42 -40 0
533 530 -39 0
533 -530 39 0
-533 530 39 0
-533 -530 -39 0
532 42 -40 0
532 -42 40 0
-532 42 40 0
-532 -42 -40 0
-534 533 0
-534 38 0
-534 37 -40 0
-534 -37 40 0
534 -533 37 40 -38 0
534 -533 -37 -40 -38 0
536 533 -37 0
536 -533 37 0
-536 533 37 0
-536 -533 -37 0
535 40 -38 0
535 -40 38 0
-535 40 38 0
-535 -40 -38 0
-537 536 0
-537 36 0
-537 35 -38 0
-537 -35 38 0
537 -536 35 38 -36 0
537 -536 -35 -38 -36 0
539 536 -35 0
539 -536 35 0
-539 536 35 0
-539 -536 -35 0
538 38 -36 0
538 -38 36 0
-538 38 36 0
-538 -38 -36 0
-540 539 0
-540 34 0
-540 33 -36 0
-540 -33 36 0
540 -539 33 36 -34 0
540 -539 -33 -36 -34 0
542 539 -33 0
542 -539 33 0
-542 539 33 0
-542 -539 -33 0
541 36 -34 0
541 -36 34 0
-541 36 34 0
-541 -36 -34 0
-543 542 0
-543 32 0
-543 31 -34 0
-543 -31 34 0
543 -542 31 34 -32 0
543 -542 -31 -34 -32 0
545 542 -31 0
545 -542 31 0
-545 542 31 0
-545 -542 -31 0
544 34 -32 0
544 -34 32 0
-544 34 32 0
-544 -34 -32 0
-546 545 0
-546 30 0
-546 29 -32 0
-546 -29 32 0
546 -545 29 32 -30 0
546 -545 -29 -32 -30 0
548 545 -29 0
548 -545 29 0
-548 545 29 0
-548 -545 -29 0
547 32 -30 0
547 -32 30 0
-547 32 30 0
-547 -32 -30 0
-549 548 0
-549 28 0
-549 27 -30 0
-549 -27 30 0
549 -548 27 30 -28 0
549 -548 -27 -30 -28 0
551 548 -27 0
551 -548 27 0
-551 548 27 0
-551 -548 -27 0
550 30 -28 0
550 -30 28 0
-550 30 28 0
-550 -30 -28 0
-552 551 0
-552 26 0
-552 25 -28 0
-552 -25 28 0
552 -551 25 28 -26 0
552 -551 -25 -28 -26 0
554 551 -25 0
554 -551 25 0
-554 551 25 0
-554 -551 -25 0
553 28 -26 0
553 -28 26 0
-553 28 26 0
-553 -28 -26 0
-555 554 0
-555 24 0
-555 23 -26 0
-555 -23 26 0
555 -554 23 26 -24 0
555 -554 -23 -26 -24 0
557 554 -23 0
557 -554 23 0
-557 554 23 0
-557 -554 -23 0
556 26 -24 0
556 -26 24 0
-556 26 24 0
-556 -26 -24 0
-558 557 0
-558 22 0
-558 21 -24 0
-558 -21 24 0
558 -557 21 24 -22 0
558 -557 -21 -24 -22 0
560 557 -21 0
560 -557 21 0
-560 557 21 0
-560 -557 -21 0
559 24 -22 0
559 -24 22 0
-559 24 22 0
-559 -24 -22 0
-561 560 0
-561 20 0
-561 19 -22 0
-561 -19 22 0
561 -560 19 22 -20 0
561 -560 -19 -22 -20 0
563 560 -19 0
563 -560 19 0
-563 560 19 0
-563 -560 -19 0
562 22 -20 0
562 -22 20 0
-562 22 20 0
-562 -22 -20 0
-564 563 0
-564 18 0
-564 17 -20 0
-564 -17 20 0
564 -563 17 20 -18 0
564 -563 -17 -20 -18 0
566 563 -17 0
566 -563 17 0
-566 563 17 0
-566 -563 -17 0
565 20 -18 0
565 -20 18 0
-565 20 18 0
-565 -20 -18 0
-567 566 0
-567 16 0
-567 15 -18 0
-567 -15 18 0
567 -566 15 18 -16 0
567 -566 -15 -18 -16 0
569 566 -15 0
569 -566 15 0
-569 566 15 0
-569 -566 -15 0
568 18 -16 0
568 -18 16 0
-568 18 16 0
-568 -18 -16 0
-570 569 0
-570 14 0
-570 13 -16 0
-570 -13 16 0
570 -569 13 16 -14 0
570 -569 -13 -16 -14 0
572 569 -13 0
572 -569 13 0
-572 569 13 0
-572 -569 -13 0
571 16 -14 0
571 -16 14 0
-571 16 14 0
-571 -16 -14 0
-573 572 0
-573 12 0
-573 11 -14 0
-573 -11 14 0
573 -572 11 14 -12 0
573 -572 -11 -14 -12 0
575 572 -11 0
575 -572 11 0
-575 572 11 0
-575 -572 -11 0
574 14 -12 0
574 -14 12 0
-574 14 12 0
-574 -14 -12 0
-576 575 0
-576 10 0
-576 9 -12 0
-576 -9 12 0
576 -575 9 12 -10 0
576 -575 -9 -12 -10 0
578 575 -9 0
578 -575 9 0
-578 575 9 0
-578 -575 -9 0
577 12 -10 0
577 -12 10 0
-577 12 10 0
-577 -12 -10 0
-579 578 0
-579 8 0
-579 7 -10 0
-579 -7 10 0
579 -578 7 10 -8 0
579 -578 -7 -10 -8 0
581 578 -7 0
581 -578 7 0
-581 578 7 0
-581 -578 -7 0
580 10 -8 0
580 -10 8 0
-580 10 8 0
-580 -10 -8 0
-582 581 0
-582 6 0
-582 5 -8 0
-582 -5 8 0
582 -581 5 8 -6 0
582 -581 -5 -8 -6 0
584 581 -5 0
584 -581 5 0
-584 581 5 0
-584 -581 -5 0
583 8 -6 0
583 -8 6 0
-583 8 6 0
-583 -8 -6 0
-585 584 0
-585 4 0
-585 3 -6 0
-585 -3 6 0
585 -584 3 6 -4 0
585 -584 -3 -6 -4 0
587 584 -3 0
587 -584 3 0
-587 584 3 0
-587 -584 -3 0
586 6 -4 0
586 -6 4 0
-586 6 4 0
-586 -6 -4 0
-588 587 0
-588 2 0
-588 1 -4 0
-588 -1 4 0
588 -587 1 4 -2 0
588 -587 -1 -4 -2 0
590 587 -1 0
590 -587 1 0
-590 587 1 0
-590 -587 -1 0
589 4 -2 0
589 -4 2 0
-589 4 2 0
-589 -4 -2 0
-590 0
-587 0
-589 0
-584 0
-586 0
-581 0
-583 0
-578 0
-580 0
-575 0
-577 0
-572 0
-574 0
-569 0
-571 0
-566 0
-568 0
-563 0
-565 0
-560 0
-562 0
-557 0
-559 0
-554 0
-556 0
-551 0
-553 0
-548 0
-550 0
-545 0
-547 0
-542 0
-544 0
-539 0
-541 0
-536 0
-538 0
-533 0
-535 0
-530 0
-532 0
-527 0
-529 0
-524 0
-526 0
-521 0
-523 0
-518 0
-520 0
-515 0
-517 0
-512 0
-514 0
-509 0
-511 0
-506 0
-508 0
-503 0
-505 0
-500 0
-502 0
-497 0
-499 0
-494 0
-496 0
-491 0
-493 0
-488 0
-490 0
-485 0
-487 0
-482 0
-484 0
-479 0
-481 0
-476 0
-478 0
-473 0
-475 0
-470 0
-472 0
-467 0
-469 0
-464 0
-466 0
-461 0
-463 0
-458 0
-460 0
-455 0
-457 0
-452 0
-454 0
-449 0
-451 0
-446 0
-448 0
-443 0
-445 0
-440 0
-442 0
-437 0
-439 0
-434 0
-436 0
-431 0
-433 0
-428 0
-430 0
-425 0
-427 0
-422 0
-424 0
-419 0
-421 0
-416 0
-418 0
-413 0
-415 0
-410 0
-412 0
-407 0
-409 0
-404 0
-406 0
-401 0
-403 0
-398 0
-400 0
-395 0
-397 0
-392 0
-394 0
-389 0
-391 0
-386 0
-388 0
-383 0
-385 0
-380 0
-382 0
-377 0
-379 0
-374 0
-376 0
-371 0
-373 0
-368 0
-370 0
-365 0
-367 0
-362 0
-364 0
-359 0
-361 0
-356 0
-358 0
-353 0
-355 0
-350 0
-352 0
-347 0
-349 0
-344 0
-346 0
-341 0
-343 0
-338 0
-340 0
-335 0
-337 0
-332 0
-334 0
-329 0
-331 0
-326 0
-328 0
-323 0
-325 0
-320 0
-322 0
-317 0
-319 0
-314 0
-316 0
-311 0
-313 0
-308 0
-310 0
-305 0
-307 0
-302 0
-304 0
-299 0
-301 0
-296 0
-298 0
-293 0
-295 0
-290 0
-292 0
-287 0
-289 0
-284 0
-286 0
-281 0
-283 0
-278 0
-280 0
-275 0
-277 0
-272 0
-274 0
-269 0
-271 0
-266 0
-268 0
-263 0
-265 0
-260 0
-262 0
-257 0
-259 0
-254 0
-256 0
-251 0
-253 0
-248 0
-250 0
-245 0
-247 0
-238 0
-244 0
